20	100	100	100
18	100	100
26	100	100
10	100	100
22	100	100
36	100	100
30	100	100
3	100	100
13	100	100
9	100	100
14	100	100
46	100	100
29	100	100
33	100	100
28	100	100
2	100	100
9	100	100
7	100	100
45	100	100
23	100	100
1	100	100
